13
0 327 9 80 398 522 279 232 563 18 390 371 128
327 0 2 231 586 118 38 348 784 337 138 121 421
9 2 0 111 698 23 154 133 521 278 92 54 288
80 231 111 0 66 124 612 343 423 106 143 116 282
398 586 698 66 0 74 180 637 219 306 452 54 52
522 118 23 124 74 0 230 64 182 16 433 212 517
279 38 154 612 180 230 0 201 188 808 68 251 109
232 348 133 343 637 64 201 0 180 214 700 217 916
563 784 521 423 219 182 188 180 0 19 359 257 64
18 337 278 106 306 16 808 214 19 0 529 23 15
390 138 92 143 452 433 68 700 359 529 0 508 790
371 121 54 116 54 212 251 217 257 23 508 0 121
128 421 288 282 52 517 109 916 64 15 790 121 0